c "random instance"
p edges 150 4553
e 1 3
e 1 5
e 1 9
e 1 10
e 1 11
e 1 12
e 1 17
e 1 20
e 1 21
e 1 23
e 1 24
e 1 25
e 1 27
e 1 35
e 1 37
e 1 40
e 1 57
e 1 60
e 1 61
e 1 64
e 1 67
e 1 68
e 1 69
e 1 71
e 1 74
e 1 75
e 1 77
e 1 78
e 1 79
e 1 81
e 1 82
e 1 83
e 1 85
e 1 90
e 1 93
e 1 100
e 1 101
e 1 104
e 1 107
e 1 109
e 1 110
e 1 114
e 1 115
e 1 119
e 1 121
e 1 122
e 1 123
e 1 124
e 1 129
e 1 132
e 1 135
e 1 136
e 1 139
e 1 140
e 2 17
e 2 18
e 2 21
e 2 24
e 2 25
e 2 27
e 2 30
e 2 31
e 2 32
e 2 35
e 2 40
e 2 41
e 2 43
e 2 46
e 2 47
e 2 48
e 2 51
e 2 52
e 2 53
e 2 54
e 2 55
e 2 57
e 2 58
e 2 59
e 2 62
e 2 63
e 2 64
e 2 65
e 2 67
e 2 69
e 2 75
e 2 77
e 2 78
e 2 79
e 2 83
e 2 92
e 2 97
e 2 98
e 2 100
e 2 101
e 2 104
e 2 106
e 2 110
e 2 112
e 2 113
e 2 114
e 2 121
e 2 124
e 2 130
e 2 132
e 2 133
e 2 134
e 2 135
e 2 138
e 2 140
e 2 144
e 2 145
e 2 146
e 3 5
e 3 9
e 3 14
e 3 17
e 3 27
e 3 34
e 3 35
e 3 36
e 3 38
e 3 41
e 3 42
e 3 43
e 3 46
e 3 47
e 3 48
e 3 49
e 3 50
e 3 52
e 3 54
e 3 55
e 3 57
e 3 59
e 3 60
e 3 67
e 3 68
e 3 69
e 3 70
e 3 71
e 3 72
e 3 73
e 3 75
e 3 77
e 3 79
e 3 80
e 3 83
e 3 85
e 3 86
e 3 92
e 3 94
e 3 100
e 3 106
e 3 108
e 3 109
e 3 110
e 3 111
e 3 112
e 3 113
e 3 119
e 3 122
e 3 124
e 3 125
e 3 131
e 3 133
e 3 136
e 3 138
e 3 139
e 3 141
e 3 142
e 3 144
e 3 147
e 3 149
e 3 150
e 4 7
e 4 10
e 4 14
e 4 15
e 4 16
e 4 17
e 4 19
e 4 23
e 4 24
e 4 27
e 4 28
e 4 34
e 4 39
e 4 40
e 4 43
e 4 44
e 4 48
e 4 49
e 4 50
e 4 52
e 4 54
e 4 60
e 4 63
e 4 64
e 4 66
e 4 68
e 4 69
e 4 70
e 4 71
e 4 73
e 4 74
e 4 75
e 4 76
e 4 77
e 4 78
e 4 80
e 4 81
e 4 82
e 4 85
e 4 86
e 4 88
e 4 89
e 4 90
e 4 93
e 4 101
e 4 103
e 4 104
e 4 105
e 4 106
e 4 109
e 4 110
e 4 113
e 4 114
e 4 119
e 4 123
e 4 124
e 4 125
e 4 127
e 4 129
e 4 130
e 4 132
e 4 133
e 4 135
e 4 136
e 4 138
e 4 142
e 4 143
e 4 144
e 4 149
e 4 150
e 5 6
e 5 8
e 5 9
e 5 11
e 5 13
e 5 14
e 5 15
e 5 16
e 5 19
e 5 22
e 5 25
e 5 26
e 5 27
e 5 28
e 5 29
e 5 30
e 5 32
e 5 34
e 5 37
e 5 39
e 5 40
e 5 43
e 5 45
e 5 49
e 5 51
e 5 57
e 5 62
e 5 67
e 5 68
e 5 69
e 5 70
e 5 71
e 5 77
e 5 83
e 5 85
e 5 87
e 5 88
e 5 90
e 5 91
e 5 96
e 5 97
e 5 98
e 5 110
e 5 111
e 5 116
e 5 120
e 5 121
e 5 123
e 5 125
e 5 130
e 5 132
e 5 135
e 5 140
e 5 143
e 5 144
e 5 148
e 6 7
e 6 10
e 6 11
e 6 12
e 6 14
e 6 15
e 6 16
e 6 18
e 6 20
e 6 21
e 6 22
e 6 27
e 6 30
e 6 33
e 6 36
e 6 37
e 6 38
e 6 39
e 6 41
e 6 46
e 6 47
e 6 48
e 6 50
e 6 51
e 6 54
e 6 55
e 6 56
e 6 64
e 6 65
e 6 66
e 6 69
e 6 74
e 6 77
e 6 78
e 6 80
e 6 84
e 6 85
e 6 86
e 6 87
e 6 91
e 6 94
e 6 95
e 6 97
e 6 106
e 6 107
e 6 116
e 6 118
e 6 119
e 6 122
e 6 123
e 6 124
e 6 129
e 6 133
e 6 134
e 6 135
e 6 137
e 6 138
e 6 139
e 6 140
e 6 141
e 6 142
e 6 143
e 6 146
e 6 150
e 7 8
e 7 11
e 7 12
e 7 13
e 7 17
e 7 18
e 7 23
e 7 24
e 7 26
e 7 28
e 7 32
e 7 34
e 7 45
e 7 46
e 7 51
e 7 52
e 7 55
e 7 60
e 7 61
e 7 62
e 7 69
e 7 72
e 7 74
e 7 75
e 7 76
e 7 78
e 7 81
e 7 83
e 7 84
e 7 86
e 7 90
e 7 92
e 7 95
e 7 101
e 7 103
e 7 111
e 7 112
e 7 113
e 7 114
e 7 115
e 7 116
e 7 118
e 7 120
e 7 123
e 7 127
e 7 131
e 7 132
e 7 133
e 7 134
e 7 136
e 7 137
e 7 139
e 7 140
e 7 141
e 7 142
e 7 143
e 7 145
e 7 146
e 7 147
e 7 149
e 8 10
e 8 12
e 8 16
e 8 17
e 8 18
e 8 20
e 8 22
e 8 26
e 8 28
e 8 34
e 8 38
e 8 39
e 8 41
e 8 42
e 8 44
e 8 46
e 8 48
e 8 50
e 8 51
e 8 52
e 8 55
e 8 57
e 8 59
e 8 61
e 8 63
e 8 67
e 8 69
e 8 70
e 8 73
e 8 74
e 8 75
e 8 77
e 8 84
e 8 87
e 8 88
e 8 89
e 8 92
e 8 93
e 8 98
e 8 100
e 8 104
e 8 105
e 8 106
e 8 108
e 8 109
e 8 113
e 8 116
e 8 121
e 8 123
e 8 125
e 8 126
e 8 127
e 8 129
e 8 139
e 8 144
e 9 12
e 9 14
e 9 17
e 9 20
e 9 21
e 9 22
e 9 25
e 9 26
e 9 27
e 9 29
e 9 30
e 9 31
e 9 33
e 9 34
e 9 36
e 9 39
e 9 41
e 9 43
e 9 45
e 9 46
e 9 48
e 9 49
e 9 53
e 9 55
e 9 57
e 9 60
e 9 61
e 9 65
e 9 66
e 9 67
e 9 68
e 9 71
e 9 73
e 9 74
e 9 76
e 9 79
e 9 81
e 9 83
e 9 84
e 9 87
e 9 89
e 9 93
e 9 94
e 9 95
e 9 96
e 9 99
e 9 104
e 9 105
e 9 106
e 9 107
e 9 109
e 9 110
e 9 113
e 9 114
e 9 118
e 9 119
e 9 122
e 9 124
e 9 127
e 9 128
e 9 129
e 9 137
e 9 141
e 9 143
e 9 144
e 10 13
e 10 19
e 10 21
e 10 27
e 10 29
e 10 30
e 10 31
e 10 33
e 10 39
e 10 44
e 10 46
e 10 47
e 10 48
e 10 49
e 10 63
e 10 65
e 10 67
e 10 71
e 10 72
e 10 75
e 10 76
e 10 80
e 10 85
e 10 92
e 10 93
e 10 100
e 10 101
e 10 102
e 10 103
e 10 106
e 10 107
e 10 108
e 10 112
e 10 115
e 10 119
e 10 123
e 10 124
e 10 126
e 10 128
e 10 130
e 10 132
e 10 133
e 10 136
e 10 139
e 10 144
e 10 150
e 11 14
e 11 15
e 11 16
e 11 17
e 11 18
e 11 19
e 11 20
e 11 21
e 11 22
e 11 24
e 11 26
e 11 31
e 11 36
e 11 38
e 11 41
e 11 42
e 11 44
e 11 47
e 11 48
e 11 49
e 11 50
e 11 57
e 11 59
e 11 61
e 11 68
e 11 69
e 11 73
e 11 78
e 11 79
e 11 85
e 11 86
e 11 87
e 11 88
e 11 91
e 11 92
e 11 94
e 11 95
e 11 96
e 11 97
e 11 101
e 11 105
e 11 109
e 11 110
e 11 115
e 11 117
e 11 118
e 11 121
e 11 124
e 11 125
e 11 129
e 11 130
e 11 131
e 11 133
e 11 134
e 11 142
e 11 146
e 12 13
e 12 14
e 12 20
e 12 22
e 12 24
e 12 26
e 12 27
e 12 30
e 12 32
e 12 35
e 12 36
e 12 39
e 12 41
e 12 45
e 12 46
e 12 47
e 12 49
e 12 51
e 12 52
e 12 56
e 12 57
e 12 59
e 12 61
e 12 63
e 12 66
e 12 70
e 12 71
e 12 72
e 12 80
e 12 81
e 12 82
e 12 87
e 12 88
e 12 90
e 12 94
e 12 96
e 12 98
e 12 102
e 12 103
e 12 107
e 12 109
e 12 110
e 12 113
e 12 114
e 12 115
e 12 119
e 12 124
e 12 125
e 12 127
e 12 128
e 12 130
e 12 134
e 12 135
e 12 137
e 12 138
e 12 140
e 12 141
e 12 142
e 12 145
e 12 146
e 12 147
e 12 148
e 12 150
e 13 16
e 13 18
e 13 19
e 13 21
e 13 22
e 13 24
e 13 25
e 13 26
e 13 28
e 13 29
e 13 30
e 13 31
e 13 32
e 13 34
e 13 36
e 13 39
e 13 40
e 13 41
e 13 43
e 13 44
e 13 48
e 13 49
e 13 50
e 13 51
e 13 54
e 13 60
e 13 61
e 13 63
e 13 69
e 13 72
e 13 75
e 13 79
e 13 85
e 13 89
e 13 90
e 13 92
e 13 95
e 13 96
e 13 100
e 13 103
e 13 104
e 13 105
e 13 106
e 13 109
e 13 115
e 13 116
e 13 117
e 13 118
e 13 122
e 13 123
e 13 124
e 13 128
e 13 130
e 13 131
e 13 135
e 13 138
e 13 141
e 13 142
e 13 147
e 13 150
e 14 15
e 14 16
e 14 22
e 14 24
e 14 27
e 14 29
e 14 31
e 14 38
e 14 42
e 14 43
e 14 44
e 14 45
e 14 53
e 14 58
e 14 59
e 14 62
e 14 64
e 14 66
e 14 67
e 14 68
e 14 72
e 14 73
e 14 74
e 14 75
e 14 82
e 14 85
e 14 86
e 14 93
e 14 95
e 14 96
e 14 98
e 14 100
e 14 105
e 14 106
e 14 107
e 14 108
e 14 109
e 14 110
e 14 112
e 14 113
e 14 114
e 14 116
e 14 118
e 14 119
e 14 120
e 14 125
e 14 127
e 14 130
e 14 133
e 14 134
e 14 136
e 14 139
e 14 141
e 14 144
e 14 148
e 14 149
e 15 18
e 15 19
e 15 20
e 15 22
e 15 23
e 15 25
e 15 28
e 15 29
e 15 31
e 15 34
e 15 35
e 15 37
e 15 38
e 15 39
e 15 42
e 15 44
e 15 46
e 15 52
e 15 53
e 15 54
e 15 56
e 15 59
e 15 60
e 15 62
e 15 63
e 15 65
e 15 66
e 15 68
e 15 69
e 15 71
e 15 78
e 15 81
e 15 84
e 15 92
e 15 93
e 15 97
e 15 107
e 15 110
e 15 111
e 15 112
e 15 113
e 15 117
e 15 119
e 15 120
e 15 122
e 15 123
e 15 124
e 15 127
e 15 128
e 15 129
e 15 130
e 15 133
e 15 134
e 15 139
e 15 140
e 15 144
e 15 146
e 15 149
e 15 150
e 16 17
e 16 18
e 16 20
e 16 21
e 16 23
e 16 26
e 16 27
e 16 30
e 16 36
e 16 38
e 16 40
e 16 42
e 16 43
e 16 46
e 16 54
e 16 55
e 16 56
e 16 57
e 16 58
e 16 60
e 16 62
e 16 63
e 16 64
e 16 68
e 16 70
e 16 72
e 16 74
e 16 78
e 16 82
e 16 84
e 16 88
e 16 92
e 16 93
e 16 97
e 16 99
e 16 100
e 16 104
e 16 110
e 16 113
e 16 114
e 16 117
e 16 120
e 16 122
e 16 123
e 16 125
e 16 129
e 16 130
e 16 131
e 16 132
e 16 133
e 16 134
e 16 136
e 16 137
e 16 144
e 16 145
e 16 147
e 16 148
e 17 19
e 17 21
e 17 22
e 17 25
e 17 28
e 17 30
e 17 31
e 17 32
e 17 33
e 17 34
e 17 35
e 17 36
e 17 39
e 17 40
e 17 42
e 17 44
e 17 46
e 17 47
e 17 49
e 17 51
e 17 57
e 17 62
e 17 64
e 17 65
e 17 66
e 17 67
e 17 68
e 17 71
e 17 72
e 17 76
e 17 77
e 17 80
e 17 83
e 17 88
e 17 90
e 17 91
e 17 95
e 17 101
e 17 102
e 17 106
e 17 108
e 17 109
e 17 116
e 17 118
e 17 119
e 17 123
e 17 124
e 17 129
e 17 133
e 17 135
e 17 140
e 17 142
e 17 144
e 17 148
e 17 149
e 18 19
e 18 23
e 18 24
e 18 27
e 18 28
e 18 29
e 18 30
e 18 32
e 18 33
e 18 36
e 18 39
e 18 40
e 18 41
e 18 42
e 18 43
e 18 45
e 18 47
e 18 49
e 18 51
e 18 59
e 18 62
e 18 69
e 18 70
e 18 71
e 18 72
e 18 73
e 18 75
e 18 80
e 18 82
e 18 83
e 18 84
e 18 86
e 18 88
e 18 89
e 18 91
e 18 97
e 18 99
e 18 103
e 18 105
e 18 110
e 18 113
e 18 115
e 18 117
e 18 118
e 18 122
e 18 123
e 18 124
e 18 125
e 18 126
e 18 128
e 18 131
e 18 134
e 18 135
e 18 136
e 18 137
e 18 139
e 18 142
e 18 143
e 18 144
e 18 146
e 19 20
e 19 22
e 19 26
e 19 27
e 19 28
e 19 31
e 19 33
e 19 36
e 19 40
e 19 41
e 19 43
e 19 44
e 19 46
e 19 47
e 19 49
e 19 50
e 19 53
e 19 55
e 19 58
e 19 59
e 19 62
e 19 66
e 19 67
e 19 68
e 19 69
e 19 75
e 19 79
e 19 82
e 19 86
e 19 87
e 19 89
e 19 90
e 19 91
e 19 92
e 19 97
e 19 107
e 19 108
e 19 110
e 19 111
e 19 113
e 19 116
e 19 117
e 19 121
e 19 125
e 19 129
e 19 131
e 19 134
e 19 135
e 19 136
e 19 141
e 19 144
e 19 148
e 19 150
e 20 21
e 20 22
e 20 23
e 20 24
e 20 27
e 20 31
e 20 32
e 20 33
e 20 34
e 20 36
e 20 38
e 20 40
e 20 42
e 20 43
e 20 45
e 20 47
e 20 48
e 20 51
e 20 55
e 20 56
e 20 58
e 20 59
e 20 60
e 20 61
e 20 62
e 20 63
e 20 64
e 20 68
e 20 69
e 20 78
e 20 79
e 20 80
e 20 84
e 20 85
e 20 86
e 20 87
e 20 94
e 20 95
e 20 100
e 20 101
e 20 104
e 20 109
e 20 110
e 20 112
e 20 115
e 20 116
e 20 119
e 20 123
e 20 125
e 20 129
e 20 134
e 20 136
e 20 137
e 20 139
e 20 140
e 20 141
e 20 143
e 20 144
e 20 147
e 20 148
e 20 149
e 20 150
e 21 22
e 21 25
e 21 26
e 21 27
e 21 28
e 21 32
e 21 34
e 21 36
e 21 39
e 21 40
e 21 41
e 21 45
e 21 46
e 21 51
e 21 52
e 21 59
e 21 61
e 21 63
e 21 65
e 21 67
e 21 68
e 21 70
e 21 73
e 21 76
e 21 77
e 21 78
e 21 80
e 21 83
e 21 92
e 21 95
e 21 97
e 21 98
e 21 101
e 21 102
e 21 104
e 21 111
e 21 115
e 21 116
e 21 124
e 21 125
e 21 129
e 21 130
e 21 135
e 21 137
e 21 139
e 21 140
e 21 141
e 21 145
e 21 148
e 21 149
e 22 25
e 22 28
e 22 29
e 22 30
e 22 32
e 22 35
e 22 37
e 22 38
e 22 41
e 22 42
e 22 47
e 22 49
e 22 51
e 22 56
e 22 58
e 22 59
e 22 68
e 22 69
e 22 71
e 22 74
e 22 75
e 22 77
e 22 78
e 22 88
e 22 90
e 22 94
e 22 96
e 22 98
e 22 99
e 22 101
e 22 107
e 22 108
e 22 109
e 22 110
e 22 111
e 22 112
e 22 116
e 22 117
e 22 118
e 22 120
e 22 122
e 22 125
e 22 131
e 22 134
e 22 136
e 22 137
e 22 139
e 22 144
e 22 146
e 22 148
e 22 150
e 23 24
e 23 26
e 23 42
e 23 46
e 23 49
e 23 55
e 23 57
e 23 62
e 23 65
e 23 68
e 23 69
e 23 70
e 23 71
e 23 72
e 23 74
e 23 75
e 23 76
e 23 77
e 23 80
e 23 81
e 23 83
e 23 84
e 23 86
e 23 88
e 23 91
e 23 92
e 23 94
e 23 98
e 23 99
e 23 107
e 23 110
e 23 113
e 23 119
e 23 120
e 23 125
e 23 132
e 23 133
e 23 141
e 23 143
e 23 145
e 23 146
e 24 25
e 24 27
e 24 28
e 24 31
e 24 32
e 24 35
e 24 36
e 24 41
e 24 42
e 24 43
e 24 44
e 24 45
e 24 46
e 24 47
e 24 48
e 24 49
e 24 52
e 24 53
e 24 54
e 24 55
e 24 56
e 24 58
e 24 59
e 24 64
e 24 69
e 24 70
e 24 79
e 24 80
e 24 81
e 24 85
e 24 87
e 24 88
e 24 90
e 24 92
e 24 93
e 24 94
e 24 95
e 24 96
e 24 97
e 24 100
e 24 101
e 24 104
e 24 105
e 24 106
e 24 108
e 24 109
e 24 111
e 24 113
e 24 114
e 24 115
e 24 116
e 24 118
e 24 122
e 24 125
e 24 126
e 24 127
e 24 128
e 24 129
e 24 135
e 24 138
e 24 140
e 24 143
e 24 144
e 24 146
e 24 147
e 24 148
e 24 149
e 25 31
e 25 32
e 25 34
e 25 35
e 25 36
e 25 38
e 25 40
e 25 43
e 25 46
e 25 48
e 25 50
e 25 53
e 25 57
e 25 65
e 25 66
e 25 68
e 25 69
e 25 70
e 25 73
e 25 78
e 25 79
e 25 84
e 25 85
e 25 88
e 25 89
e 25 96
e 25 98
e 25 103
e 25 107
e 25 109
e 25 112
e 25 113
e 25 114
e 25 116
e 25 117
e 25 120
e 25 123
e 25 126
e 25 129
e 25 130
e 25 134
e 25 135
e 25 137
e 25 138
e 25 139
e 25 140
e 25 142
e 25 145
e 25 146
e 25 149
e 26 27
e 26 30
e 26 31
e 26 32
e 26 33
e 26 38
e 26 39
e 26 42
e 26 54
e 26 55
e 26 56
e 26 57
e 26 58
e 26 59
e 26 62
e 26 64
e 26 65
e 26 70
e 26 71
e 26 75
e 26 77
e 26 78
e 26 82
e 26 83
e 26 86
e 26 89
e 26 94
e 26 96
e 26 99
e 26 105
e 26 106
e 26 112
e 26 114
e 26 120
e 26 122
e 26 127
e 26 131
e 26 133
e 26 136
e 26 138
e 26 139
e 26 146
e 26 147
e 26 148
e 26 150
e 27 31
e 27 33
e 27 39
e 27 44
e 27 45
e 27 47
e 27 50
e 27 51
e 27 52
e 27 53
e 27 57
e 27 59
e 27 60
e 27 66
e 27 67
e 27 70
e 27 71
e 27 73
e 27 75
e 27 76
e 27 79
e 27 81
e 27 82
e 27 84
e 27 85
e 27 87
e 27 93
e 27 96
e 27 97
e 27 99
e 27 101
e 27 102
e 27 106
e 27 107
e 27 108
e 27 111
e 27 114
e 27 115
e 27 117
e 27 120
e 27 123
e 27 127
e 27 128
e 27 130
e 27 134
e 27 135
e 27 138
e 27 140
e 27 142
e 27 143
e 27 146
e 28 29
e 28 34
e 28 37
e 28 40
e 28 41
e 28 43
e 28 44
e 28 45
e 28 49
e 28 51
e 28 54
e 28 56
e 28 58
e 28 60
e 28 62
e 28 63
e 28 64
e 28 65
e 28 68
e 28 77
e 28 83
e 28 87
e 28 89
e 28 90
e 28 97
e 28 99
e 28 101
e 28 104
e 28 108
e 28 109
e 28 115
e 28 117
e 28 121
e 28 122
e 28 124
e 28 126
e 28 129
e 28 130
e 28 136
e 28 137
e 28 138
e 28 144
e 28 150
e 29 32
e 29 34
e 29 35
e 29 37
e 29 39
e 29 40
e 29 42
e 29 44
e 29 47
e 29 50
e 29 52
e 29 54
e 29 56
e 29 59
e 29 62
e 29 63
e 29 65
e 29 68
e 29 71
e 29 72
e 29 73
e 29 77
e 29 81
e 29 82
e 29 83
e 29 88
e 29 90
e 29 94
e 29 95
e 29 98
e 29 99
e 29 103
e 29 105
e 29 109
e 29 111
e 29 113
e 29 114
e 29 118
e 29 122
e 29 124
e 29 127
e 29 128
e 29 131
e 29 133
e 29 134
e 29 136
e 29 137
e 29 139
e 29 140
e 29 142
e 29 145
e 29 149
e 29 150
e 30 32
e 30 37
e 30 41
e 30 42
e 30 44
e 30 47
e 30 49
e 30 51
e 30 56
e 30 61
e 30 62
e 30 66
e 30 67
e 30 68
e 30 69
e 30 72
e 30 73
e 30 79
e 30 81
e 30 83
e 30 87
e 30 90
e 30 94
e 30 97
e 30 100
e 30 103
e 30 105
e 30 108
e 30 110
e 30 113
e 30 115
e 30 116
e 30 117
e 30 118
e 30 119
e 30 124
e 30 130
e 30 132
e 30 137
e 30 138
e 30 140
e 30 142
e 30 143
e 30 144
e 31 32
e 31 33
e 31 34
e 31 36
e 31 37
e 31 42
e 31 43
e 31 46
e 31 49
e 31 52
e 31 54
e 31 57
e 31 59
e 31 60
e 31 61
e 31 62
e 31 64
e 31 65
e 31 69
e 31 71
e 31 73
e 31 77
e 31 79
e 31 80
e 31 82
e 31 84
e 31 85
e 31 88
e 31 89
e 31 99
e 31 102
e 31 107
e 31 108
e 31 109
e 31 112
e 31 119
e 31 120
e 31 123
e 31 126
e 31 127
e 31 128
e 31 130
e 31 131
e 31 132
e 31 134
e 31 136
e 31 140
e 31 142
e 31 143
e 32 36
e 32 38
e 32 39
e 32 40
e 32 41
e 32 46
e 32 49
e 32 50
e 32 56
e 32 61
e 32 63
e 32 66
e 32 67
e 32 69
e 32 70
e 32 75
e 32 76
e 32 79
e 32 83
e 32 85
e 32 90
e 32 91
e 32 92
e 32 93
e 32 96
e 32 103
e 32 108
e 32 109
e 32 112
e 32 113
e 32 114
e 32 115
e 32 116
e 32 118
e 32 120
e 32 124
e 32 127
e 32 130
e 32 133
e 32 136
e 32 137
e 32 138
e 32 139
e 32 146
e 32 148
e 32 150
e 33 36
e 33 45
e 33 51
e 33 53
e 33 55
e 33 56
e 33 57
e 33 61
e 33 64
e 33 66
e 33 68
e 33 69
e 33 70
e 33 71
e 33 75
e 33 77
e 33 78
e 33 80
e 33 83
e 33 87
e 33 89
e 33 91
e 33 92
e 33 101
e 33 102
e 33 104
e 33 108
e 33 114
e 33 119
e 33 121
e 33 124
e 33 125
e 33 126
e 33 127
e 33 131
e 33 134
e 33 135
e 33 136
e 33 142
e 33 144
e 33 145
e 33 146
e 33 147
e 34 36
e 34 37
e 34 38
e 34 40
e 34 41
e 34 44
e 34 45
e 34 53
e 34 54
e 34 56
e 34 58
e 34 62
e 34 63
e 34 64
e 34 68
e 34 71
e 34 74
e 34 76
e 34 77
e 34 78
e 34 79
e 34 81
e 34 85
e 34 87
e 34 88
e 34 89
e 34 94
e 34 97
e 34 99
e 34 100
e 34 102
e 34 103
e 34 104
e 34 111
e 34 112
e 34 114
e 34 115
e 34 116
e 34 117
e 34 118
e 34 119
e 34 122
e 34 123
e 34 126
e 34 133
e 34 134
e 34 136
e 34 138
e 34 140
e 34 144
e 34 145
e 34 146
e 34 148
e 34 150
e 35 36
e 35 37
e 35 38
e 35 39
e 35 43
e 35 44
e 35 46
e 35 48
e 35 49
e 35 50
e 35 54
e 35 56
e 35 59
e 35 64
e 35 67
e 35 69
e 35 70
e 35 72
e 35 73
e 35 75
e 35 77
e 35 79
e 35 83
e 35 84
e 35 88
e 35 89
e 35 90
e 35 93
e 35 94
e 35 97
e 35 98
e 35 99
e 35 103
e 35 106
e 35 111
e 35 114
e 35 120
e 35 123
e 35 124
e 35 126
e 35 133
e 35 134
e 35 136
e 35 137
e 35 138
e 35 139
e 35 140
e 35 142
e 35 145
e 35 148
e 36 41
e 36 42
e 36 43
e 36 44
e 36 46
e 36 47
e 36 49
e 36 50
e 36 55
e 36 56
e 36 57
e 36 61
e 36 66
e 36 67
e 36 69
e 36 73
e 36 78
e 36 79
e 36 82
e 36 83
e 36 87
e 36 89
e 36 90
e 36 97
e 36 101
e 36 105
e 36 106
e 36 109
e 36 112
e 36 114
e 36 116
e 36 118
e 36 120
e 36 122
e 36 129
e 36 130
e 36 133
e 36 134
e 36 135
e 36 141
e 36 142
e 36 143
e 36 144
e 36 146
e 36 147
e 37 38
e 37 39
e 37 40
e 37 41
e 37 44
e 37 49
e 37 50
e 37 51
e 37 52
e 37 53
e 37 58
e 37 59
e 37 61
e 37 63
e 37 65
e 37 68
e 37 70
e 37 72
e 37 73
e 37 74
e 37 77
e 37 80
e 37 82
e 37 84
e 37 85
e 37 86
e 37 88
e 37 91
e 37 93
e 37 95
e 37 97
e 37 99
e 37 100
e 37 108
e 37 111
e 37 112
e 37 115
e 37 117
e 37 118
e 37 119
e 37 122
e 37 124
e 37 126
e 37 127
e 37 128
e 37 130
e 37 131
e 37 133
e 37 134
e 37 136
e 37 138
e 37 140
e 37 146
e 37 147
e 37 148
e 37 149
e 37 150
e 38 41
e 38 45
e 38 46
e 38 47
e 38 49
e 38 53
e 38 56
e 38 59
e 38 65
e 38 80
e 38 86
e 38 87
e 38 89
e 38 91
e 38 92
e 38 95
e 38 96
e 38 97
e 38 101
e 38 104
e 38 106
e 38 107
e 38 116
e 38 117
e 38 119
e 38 120
e 38 123
e 38 124
e 38 125
e 38 126
e 38 128
e 38 130
e 38 134
e 38 135
e 38 136
e 38 137
e 38 139
e 38 140
e 38 141
e 38 143
e 38 148
e 38 150
e 39 40
e 39 43
e 39 44
e 39 46
e 39 49
e 39 51
e 39 53
e 39 56
e 39 59
e 39 62
e 39 67
e 39 69
e 39 71
e 39 72
e 39 73
e 39 75
e 39 78
e 39 79
e 39 81
e 39 84
e 39 85
e 39 86
e 39 87
e 39 90
e 39 93
e 39 94
e 39 96
e 39 102
e 39 105
e 39 107
e 39 109
e 39 110
e 39 111
e 39 115
e 39 116
e 39 122
e 39 127
e 39 128
e 39 131
e 39 135
e 39 136
e 39 138
e 39 143
e 39 146
e 39 149
e 40 45
e 40 50
e 40 52
e 40 54
e 40 59
e 40 60
e 40 64
e 40 65
e 40 69
e 40 73
e 40 75
e 40 76
e 40 79
e 40 80
e 40 81
e 40 84
e 40 85
e 40 90
e 40 96
e 40 99
e 40 100
e 40 103
e 40 104
e 40 108
e 40 109
e 40 110
e 40 112
e 40 115
e 40 118
e 40 119
e 40 120
e 40 121
e 40 124
e 40 125
e 40 126
e 40 128
e 40 133
e 40 134
e 40 136
e 40 139
e 40 142
e 40 143
e 40 144
e 40 146
e 40 147
e 40 149
e 40 150
e 41 42
e 41 43
e 41 44
e 41 45
e 41 47
e 41 49
e 41 50
e 41 52
e 41 54
e 41 59
e 41 62
e 41 63
e 41 64
e 41 65
e 41 72
e 41 73
e 41 79
e 41 80
e 41 81
e 41 83
e 41 84
e 41 87
e 41 88
e 41 91
e 41 93
e 41 95
e 41 97
e 41 99
e 41 100
e 41 105
e 41 106
e 41 107
e 41 110
e 41 111
e 41 113
e 41 115
e 41 116
e 41 118
e 41 120
e 41 122
e 41 123
e 41 124
e 41 126
e 41 129
e 41 135
e 41 138
e 41 139
e 41 145
e 41 148
e 41 150
e 42 45
e 42 46
e 42 47
e 42 50
e 42 53
e 42 55
e 42 57
e 42 58
e 42 62
e 42 63
e 42 69
e 42 70
e 42 73
e 42 75
e 42 79
e 42 85
e 42 88
e 42 89
e 42 90
e 42 91
e 42 95
e 42 98
e 42 99
e 42 101
e 42 102
e 42 103
e 42 105
e 42 107
e 42 109
e 42 110
e 42 114
e 42 115
e 42 116
e 42 118
e 42 119
e 42 121
e 42 129
e 42 131
e 42 132
e 42 135
e 42 136
e 42 138
e 42 139
e 42 144
e 42 145
e 42 147
e 42 148
e 42 150
e 43 44
e 43 54
e 43 56
e 43 66
e 43 67
e 43 71
e 43 74
e 43 77
e 43 85
e 43 91
e 43 92
e 43 100
e 43 103
e 43 104
e 43 106
e 43 108
e 43 109
e 43 113
e 43 114
e 43 128
e 43 129
e 43 134
e 43 140
e 43 141
e 43 145
e 43 148
e 43 149
e 43 150
e 44 45
e 44 47
e 44 48
e 44 50
e 44 51
e 44 52
e 44 56
e 44 57
e 44 58
e 44 59
e 44 60
e 44 62
e 44 64
e 44 67
e 44 68
e 44 71
e 44 75
e 44 76
e 44 77
e 44 81
e 44 84
e 44 86
e 44 89
e 44 91
e 44 92
e 44 93
e 44 94
e 44 96
e 44 98
e 44 99
e 44 102
e 44 104
e 44 106
e 44 107
e 44 109
e 44 111
e 44 113
e 44 117
e 44 119
e 44 120
e 44 121
e 44 122
e 44 123
e 44 126
e 44 127
e 44 129
e 44 131
e 44 138
e 44 139
e 44 140
e 44 141
e 44 142
e 44 144
e 44 149
e 44 150
e 45 47
e 45 49
e 45 51
e 45 52
e 45 57
e 45 61
e 45 62
e 45 67
e 45 68
e 45 70
e 45 71
e 45 78
e 45 79
e 45 81
e 45 83
e 45 84
e 45 85
e 45 87
e 45 88
e 45 90
e 45 91
e 45 92
e 45 95
e 45 97
e 45 99
e 45 102
e 45 106
e 45 111
e 45 120
e 45 121
e 45 122
e 45 123
e 45 124
e 45 125
e 45 126
e 45 127
e 45 128
e 45 130
e 45 131
e 45 133
e 45 134
e 45 136
e 45 137
e 45 139
e 45 140
e 45 144
e 45 147
e 45 149
e 45 150
e 46 47
e 46 48
e 46 51
e 46 54
e 46 58
e 46 61
e 46 69
e 46 73
e 46 76
e 46 77
e 46 81
e 46 83
e 46 86
e 46 88
e 46 90
e 46 96
e 46 97
e 46 99
e 46 101
e 46 103
e 46 104
e 46 118
e 46 125
e 46 129
e 46 131
e 46 133
e 46 140
e 46 143
e 46 147
e 46 148
e 46 150
e 47 48
e 47 49
e 47 51
e 47 58
e 47 60
e 47 61
e 47 63
e 47 64
e 47 68
e 47 72
e 47 73
e 47 74
e 47 76
e 47 79
e 47 83
e 47 86
e 47 88
e 47 89
e 47 90
e 47 94
e 47 97
e 47 98
e 47 99
e 47 100
e 47 101
e 47 107
e 47 119
e 47 121
e 47 126
e 47 129
e 47 130
e 47 132
e 47 135
e 47 138
e 47 139
e 47 141
e 47 142
e 47 144
e 47 146
e 47 147
e 47 150
e 48 51
e 48 52
e 48 54
e 48 57
e 48 58
e 48 60
e 48 61
e 48 63
e 48 66
e 48 68
e 48 70
e 48 73
e 48 77
e 48 87
e 48 88
e 48 89
e 48 90
e 48 91
e 48 96
e 48 98
e 48 100
e 48 101
e 48 103
e 48 105
e 48 106
e 48 110
e 48 111
e 48 113
e 48 116
e 48 125
e 48 127
e 48 132
e 48 136
e 48 143
e 48 144
e 48 145
e 48 146
e 48 147
e 48 150
e 49 50
e 49 52
e 49 59
e 49 60
e 49 63
e 49 68
e 49 70
e 49 71
e 49 73
e 49 74
e 49 75
e 49 78
e 49 79
e 49 84
e 49 85
e 49 88
e 49 91
e 49 92
e 49 94
e 49 96
e 49 97
e 49 99
e 49 101
e 49 102
e 49 103
e 49 104
e 49 105
e 49 110
e 49 111
e 49 113
e 49 119
e 49 124
e 49 128
e 49 131
e 49 134
e 49 135
e 49 138
e 49 143
e 49 146
e 49 148
e 49 149
e 49 150
e 50 52
e 50 56
e 50 57
e 50 58
e 50 61
e 50 62
e 50 63
e 50 65
e 50 68
e 50 69
e 50 71
e 50 72
e 50 73
e 50 76
e 50 78
e 50 80
e 50 82
e 50 85
e 50 87
e 50 90
e 50 91
e 50 93
e 50 96
e 50 97
e 50 104
e 50 107
e 50 112
e 50 117
e 50 118
e 50 120
e 50 121
e 50 122
e 50 123
e 50 128
e 50 130
e 50 134
e 50 135
e 50 142
e 50 148
e 50 149
e 50 150
e 51 55
e 51 56
e 51 59
e 51 60
e 51 61
e 51 64
e 51 65
e 51 66
e 51 68
e 51 69
e 51 75
e 51 76
e 51 81
e 51 83
e 51 85
e 51 86
e 51 92
e 51 97
e 51 98
e 51 100
e 51 105
e 51 107
e 51 110
e 51 114
e 51 121
e 51 126
e 51 135
e 51 136
e 51 137
e 51 138
e 51 140
e 51 142
e 51 146
e 52 57
e 52 58
e 52 59
e 52 60
e 52 61
e 52 65
e 52 66
e 52 67
e 52 70
e 52 71
e 52 72
e 52 75
e 52 77
e 52 78
e 52 81
e 52 83
e 52 84
e 52 86
e 52 90
e 52 99
e 52 101
e 52 102
e 52 105
e 52 106
e 52 108
e 52 110
e 52 111
e 52 113
e 52 118
e 52 120
e 52 126
e 52 128
e 52 130
e 52 133
e 52 136
e 52 137
e 52 140
e 52 143
e 52 144
e 53 55
e 53 56
e 53 64
e 53 65
e 53 66
e 53 67
e 53 73
e 53 77
e 53 79
e 53 80
e 53 88
e 53 91
e 53 94
e 53 95
e 53 96
e 53 97
e 53 98
e 53 99
e 53 100
e 53 105
e 53 107
e 53 109
e 53 111
e 53 115
e 53 120
e 53 125
e 53 127
e 53 128
e 53 130
e 53 131
e 53 134
e 53 142
e 53 145
e 54 57
e 54 59
e 54 64
e 54 66
e 54 67
e 54 68
e 54 71
e 54 72
e 54 75
e 54 77
e 54 78
e 54 82
e 54 83
e 54 87
e 54 88
e 54 89
e 54 92
e 54 94
e 54 97
e 54 101
e 54 104
e 54 105
e 54 106
e 54 108
e 54 111
e 54 112
e 54 118
e 54 120
e 54 126
e 54 128
e 54 129
e 54 130
e 54 131
e 54 132
e 54 133
e 54 136
e 54 137
e 54 138
e 54 140
e 54 141
e 54 146
e 54 150
e 55 56
e 55 57
e 55 59
e 55 62
e 55 68
e 55 73
e 55 75
e 55 80
e 55 84
e 55 87
e 55 89
e 55 93
e 55 94
e 55 96
e 55 99
e 55 102
e 55 103
e 55 104
e 55 107
e 55 110
e 55 111
e 55 113
e 55 115
e 55 118
e 55 120
e 55 124
e 55 131
e 55 132
e 55 134
e 55 135
e 55 136
e 55 138
e 55 140
e 55 145
e 55 147
e 55 150
e 56 58
e 56 59
e 56 61
e 56 62
e 56 63
e 56 65
e 56 67
e 56 71
e 56 72
e 56 74
e 56 75
e 56 79
e 56 81
e 56 84
e 56 91
e 56 92
e 56 95
e 56 97
e 56 98
e 56 100
e 56 101
e 56 103
e 56 106
e 56 107
e 56 108
e 56 110
e 56 112
e 56 113
e 56 114
e 56 118
e 56 119
e 56 122
e 56 123
e 56 126
e 56 127
e 56 131
e 56 133
e 56 134
e 56 135
e 56 142
e 56 144
e 56 145
e 56 146
e 56 147
e 56 150
e 57 63
e 57 65
e 57 67
e 57 68
e 57 69
e 57 71
e 57 79
e 57 81
e 57 83
e 57 86
e 57 88
e 57 90
e 57 94
e 57 95
e 57 100
e 57 104
e 57 109
e 57 112
e 57 117
e 57 119
e 57 120
e 57 121
e 57 123
e 57 129
e 57 132
e 57 135
e 57 136
e 57 137
e 57 142
e 57 143
e 57 149
e 58 59
e 58 62
e 58 65
e 58 68
e 58 69
e 58 72
e 58 75
e 58 78
e 58 79
e 58 83
e 58 85
e 58 90
e 58 93
e 58 97
e 58 104
e 58 108
e 58 110
e 58 111
e 58 116
e 58 118
e 58 123
e 58 128
e 58 131
e 58 137
e 58 139
e 58 140
e 58 141
e 58 142
e 58 145
e 58 147
e 58 148
e 58 149
e 59 62
e 59 64
e 59 66
e 59 68
e 59 80
e 59 82
e 59 83
e 59 85
e 59 87
e 59 89
e 59 92
e 59 96
e 59 98
e 59 102
e 59 107
e 59 109
e 59 110
e 59 117
e 59 124
e 59 127
e 59 128
e 59 130
e 59 138
e 59 140
e 59 141
e 59 142
e 59 143
e 59 144
e 59 145
e 59 147
e 59 148
e 59 149
e 60 61
e 60 62
e 60 64
e 60 66
e 60 67
e 60 68
e 60 69
e 60 72
e 60 74
e 60 76
e 60 81
e 60 86
e 60 87
e 60 89
e 60 90
e 60 93
e 60 94
e 60 95
e 60 99
e 60 106
e 60 107
e 60 108
e 60 109
e 60 110
e 60 111
e 60 116
e 60 119
e 60 120
e 60 122
e 60 124
e 60 127
e 60 128
e 60 130
e 60 131
e 60 133
e 60 134
e 60 137
e 60 138
e 60 142
e 60 145
e 60 146
e 60 149
e 60 150
e 61 62
e 61 64
e 61 68
e 61 72
e 61 77
e 61 82
e 61 83
e 61 84
e 61 85
e 61 87
e 61 88
e 61 89
e 61 90
e 61 94
e 61 97
e 61 101
e 61 104
e 61 106
e 61 107
e 61 110
e 61 113
e 61 114
e 61 116
e 61 118
e 61 120
e 61 121
e 61 128
e 61 129
e 61 134
e 61 137
e 61 139
e 61 140
e 61 141
e 61 142
e 61 143
e 61 146
e 62 64
e 62 68
e 62 70
e 62 72
e 62 77
e 62 82
e 62 84
e 62 88
e 62 89
e 62 90
e 62 95
e 62 97
e 62 99
e 62 100
e 62 106
e 62 109
e 62 111
e 62 116
e 62 118
e 62 125
e 62 127
e 62 128
e 62 130
e 62 131
e 62 134
e 62 137
e 62 140
e 62 145
e 62 147
e 62 149
e 62 150
e 63 65
e 63 67
e 63 68
e 63 69
e 63 75
e 63 78
e 63 79
e 63 80
e 63 82
e 63 83
e 63 84
e 63 88
e 63 89
e 63 91
e 63 98
e 63 100
e 63 101
e 63 103
e 63 104
e 63 107
e 63 108
e 63 110
e 63 111
e 63 113
e 63 114
e 63 117
e 63 119
e 63 125
e 63 126
e 63 128
e 63 132
e 63 133
e 63 136
e 63 137
e 63 141
e 63 143
e 63 144
e 63 145
e 63 147
e 64 65
e 64 68
e 64 69
e 64 71
e 64 73
e 64 74
e 64 75
e 64 77
e 64 80
e 64 87
e 64 90
e 64 91
e 64 92
e 64 94
e 64 97
e 64 100
e 64 102
e 64 103
e 64 105
e 64 109
e 64 116
e 64 117
e 64 120
e 64 122
e 64 123
e 64 124
e 64 128
e 64 130
e 64 131
e 64 134
e 64 135
e 64 138
e 64 141
e 64 142
e 64 149
e 65 66
e 65 68
e 65 69
e 65 71
e 65 72
e 65 75
e 65 77
e 65 78
e 65 83
e 65 87
e 65 92
e 65 93
e 65 95
e 65 97
e 65 98
e 65 103
e 65 105
e 65 106
e 65 108
e 65 109
e 65 110
e 65 113
e 65 115
e 65 117
e 65 120
e 65 121
e 65 124
e 65 126
e 65 127
e 65 129
e 65 136
e 65 139
e 65 140
e 65 147
e 66 69
e 66 74
e 66 76
e 66 80
e 66 81
e 66 82
e 66 83
e 66 85
e 66 88
e 66 89
e 66 90
e 66 94
e 66 96
e 66 97
e 66 99
e 66 100
e 66 102
e 66 104
e 66 107
e 66 113
e 66 114
e 66 117
e 66 119
e 66 121
e 66 124
e 66 127
e 66 128
e 66 129
e 66 132
e 66 133
e 66 138
e 66 143
e 66 146
e 67 70
e 67 71
e 67 73
e 67 77
e 67 78
e 67 80
e 67 81
e 67 83
e 67 86
e 67 90
e 67 91
e 67 93
e 67 95
e 67 98
e 67 99
e 67 100
e 67 101
e 67 102
e 67 113
e 67 115
e 67 116
e 67 117
e 67 118
e 67 121
e 67 122
e 67 126
e 67 128
e 67 130
e 67 137
e 67 138
e 67 143
e 67 144
e 67 148
e 67 150
e 68 71
e 68 72
e 68 77
e 68 84
e 68 85
e 68 87
e 68 89
e 68 97
e 68 98
e 68 99
e 68 100
e 68 103
e 68 104
e 68 110
e 68 111
e 68 113
e 68 114
e 68 116
e 68 117
e 68 118
e 68 125
e 68 127
e 68 129
e 68 139
e 68 145
e 68 147
e 68 148
e 69 72
e 69 77
e 69 79
e 69 82
e 69 86
e 69 87
e 69 88
e 69 91
e 69 96
e 69 99
e 69 103
e 69 108
e 69 109
e 69 110
e 69 113
e 69 114
e 69 117
e 69 118
e 69 120
e 69 121
e 69 125
e 69 128
e 69 129
e 69 132
e 69 133
e 69 135
e 69 137
e 69 138
e 69 140
e 69 142
e 69 143
e 69 145
e 69 147
e 69 148
e 70 72
e 70 77
e 70 79
e 70 84
e 70 86
e 70 87
e 70 88
e 70 93
e 70 96
e 70 99
e 70 102
e 70 103
e 70 105
e 70 110
e 70 112
e 70 114
e 70 115
e 70 116
e 70 118
e 70 121
e 70 122
e 70 123
e 70 124
e 70 126
e 70 127
e 70 128
e 70 129
e 70 130
e 70 132
e 70 133
e 70 137
e 70 138
e 70 149
e 71 72
e 71 73
e 71 79
e 71 84
e 71 86
e 71 93
e 71 94
e 71 96
e 71 98
e 71 99
e 71 100
e 71 101
e 71 103
e 71 105
e 71 110
e 71 112
e 71 115
e 71 118
e 71 119
e 71 121
e 71 123
e 71 124
e 71 125
e 71 134
e 71 137
e 71 138
e 71 139
e 71 142
e 71 143
e 71 146
e 71 149
e 71 150
e 72 73
e 72 75
e 72 77
e 72 78
e 72 81
e 72 89
e 72 90
e 72 91
e 72 92
e 72 93
e 72 94
e 72 96
e 72 99
e 72 100
e 72 103
e 72 105
e 72 108
e 72 110
e 72 111
e 72 113
e 72 114
e 72 115
e 72 116
e 72 117
e 72 120
e 72 126
e 72 131
e 72 133
e 72 135
e 72 136
e 72 137
e 72 141
e 72 142
e 72 145
e 72 150
e 73 80
e 73 81
e 73 85
e 73 89
e 73 92
e 73 93
e 73 94
e 73 97
e 73 98
e 73 100
e 73 106
e 73 110
e 73 111
e 73 113
e 73 115
e 73 116
e 73 117
e 73 119
e 73 120
e 73 121
e 73 122
e 73 124
e 73 128
e 73 132
e 73 135
e 73 137
e 73 138
e 73 143
e 73 145
e 74 75
e 74 76
e 74 77
e 74 82
e 74 85
e 74 92
e 74 100
e 74 101
e 74 106
e 74 109
e 74 112
e 74 114
e 74 115
e 74 117
e 74 118
e 74 120
e 74 122
e 74 125
e 74 127
e 74 129
e 74 132
e 74 135
e 74 136
e 74 138
e 74 139
e 74 147
e 74 149
e 75 76
e 75 78
e 75 80
e 75 82
e 75 84
e 75 87
e 75 88
e 75 90
e 75 93
e 75 96
e 75 98
e 75 99
e 75 103
e 75 110
e 75 113
e 75 114
e 75 115
e 75 117
e 75 118
e 75 119
e 75 120
e 75 123
e 75 127
e 75 134
e 75 135
e 75 136
e 75 139
e 75 145
e 75 147
e 75 149
e 75 150
e 76 79
e 76 81
e 76 82
e 76 85
e 76 86
e 76 88
e 76 90
e 76 93
e 76 94
e 76 97
e 76 99
e 76 100
e 76 101
e 76 102
e 76 103
e 76 104
e 76 105
e 76 109
e 76 110
e 76 113
e 76 115
e 76 116
e 76 119
e 76 120
e 76 121
e 76 124
e 76 126
e 76 127
e 76 129
e 76 132
e 76 138
e 76 142
e 76 143
e 76 145
e 76 146
e 76 147
e 76 150
e 77 78
e 77 80
e 77 85
e 77 87
e 77 88
e 77 90
e 77 92
e 77 96
e 77 98
e 77 100
e 77 105
e 77 107
e 77 111
e 77 112
e 77 113
e 77 116
e 77 123
e 77 127
e 77 134
e 77 135
e 77 138
e 77 140
e 77 146
e 77 149
e 78 80
e 78 81
e 78 82
e 78 83
e 78 84
e 78 85
e 78 86
e 78 90
e 78 96
e 78 100
e 78 103
e 78 105
e 78 106
e 78 109
e 78 113
e 78 114
e 78 116
e 78 119
e 78 122
e 78 126
e 78 130
e 78 131
e 78 138
e 78 139
e 78 141
e 78 142
e 78 144
e 78 145
e 78 146
e 78 147
e 79 80
e 79 81
e 79 89
e 79 90
e 79 91
e 79 98
e 79 99
e 79 101
e 79 102
e 79 103
e 79 109
e 79 111
e 79 114
e 79 119
e 79 124
e 79 126
e 79 128
e 79 129
e 79 130
e 79 132
e 79 134
e 79 140
e 79 145
e 79 149
e 80 81
e 80 82
e 80 86
e 80 87
e 80 88
e 80 95
e 80 96
e 80 99
e 80 100
e 80 107
e 80 115
e 80 117
e 80 118
e 80 120
e 80 126
e 80 127
e 80 129
e 80 130
e 80 131
e 80 136
e 80 138
e 80 141
e 80 145
e 80 146
e 80 147
e 80 150
e 81 84
e 81 88
e 81 90
e 81 91
e 81 96
e 81 97
e 81 99
e 81 101
e 81 105
e 81 108
e 81 111
e 81 113
e 81 125
e 81 130
e 81 131
e 81 132
e 81 137
e 81 144
e 81 145
e 81 146
e 81 147
e 81 148
e 81 149
e 82 83
e 82 85
e 82 87
e 82 88
e 82 90
e 82 91
e 82 92
e 82 95
e 82 97
e 82 105
e 82 113
e 82 114
e 82 118
e 82 119
e 82 122
e 82 124
e 82 125
e 82 126
e 82 128
e 82 129
e 82 130
e 82 133
e 82 136
e 82 142
e 82 147
e 82 150
e 83 84
e 83 85
e 83 87
e 83 88
e 83 89
e 83 90
e 83 94
e 83 95
e 83 101
e 83 102
e 83 109
e 83 110
e 83 112
e 83 113
e 83 115
e 83 116
e 83 118
e 83 123
e 83 124
e 83 126
e 83 133
e 83 136
e 83 138
e 83 143
e 83 144
e 83 146
e 83 148
e 83 149
e 84 85
e 84 87
e 84 89
e 84 91
e 84 93
e 84 95
e 84 96
e 84 101
e 84 104
e 84 105
e 84 106
e 84 109
e 84 110
e 84 111
e 84 113
e 84 117
e 84 119
e 84 121
e 84 122
e 84 123
e 84 124
e 84 127
e 84 131
e 84 132
e 84 133
e 84 134
e 84 135
e 84 140
e 84 142
e 84 146
e 84 148
e 85 87
e 85 88
e 85 91
e 85 92
e 85 96
e 85 100
e 85 101
e 85 104
e 85 105
e 85 106
e 85 111
e 85 112
e 85 114
e 85 117
e 85 119
e 85 120
e 85 125
e 85 127
e 85 128
e 85 129
e 85 130
e 85 131
e 85 134
e 85 135
e 85 137
e 85 139
e 85 140
e 85 141
e 85 143
e 85 144
e 86 88
e 86 89
e 86 90
e 86 91
e 86 93
e 86 94
e 86 95
e 86 96
e 86 106
e 86 107
e 86 109
e 86 112
e 86 115
e 86 117
e 86 118
e 86 120
e 86 122
e 86 125
e 86 126
e 86 128
e 86 129
e 86 130
e 86 132
e 86 134
e 86 138
e 86 139
e 86 141
e 86 142
e 86 143
e 86 148
e 86 150
e 87 89
e 87 90
e 87 91
e 87 92
e 87 93
e 87 94
e 87 97
e 87 102
e 87 106
e 87 110
e 87 112
e 87 114
e 87 120
e 87 121
e 87 122
e 87 123
e 87 124
e 87 127
e 87 131
e 87 134
e 87 136
e 87 139
e 87 140
e 87 144
e 87 146
e 87 147
e 87 148
e 88 89
e 88 91
e 88 96
e 88 98
e 88 99
e 88 107
e 88 110
e 88 112
e 88 114
e 88 115
e 88 117
e 88 118
e 88 119
e 88 123
e 88 125
e 88 128
e 88 129
e 88 130
e 88 134
e 88 137
e 88 138
e 88 139
e 88 142
e 88 144
e 88 145
e 88 150
e 89 92
e 89 93
e 89 96
e 89 98
e 89 100
e 89 102
e 89 103
e 89 105
e 89 106
e 89 109
e 89 111
e 89 113
e 89 115
e 89 116
e 89 117
e 89 119
e 89 120
e 89 121
e 89 122
e 89 128
e 89 129
e 89 132
e 89 134
e 89 136
e 89 139
e 89 140
e 89 145
e 89 148
e 89 149
e 90 93
e 90 96
e 90 101
e 90 108
e 90 109
e 90 112
e 90 114
e 90 115
e 90 117
e 90 122
e 90 123
e 90 124
e 90 125
e 90 126
e 90 127
e 90 133
e 90 134
e 90 135
e 90 137
e 90 141
e 90 144
e 90 149
e 91 95
e 91 99
e 91 100
e 91 106
e 91 111
e 91 112
e 91 115
e 91 117
e 91 118
e 91 119
e 91 122
e 91 128
e 91 129
e 91 132
e 91 138
e 91 139
e 91 140
e 91 141
e 91 148
e 91 149
e 91 150
e 92 93
e 92 96
e 92 98
e 92 100
e 92 103
e 92 105
e 92 107
e 92 109
e 92 113
e 92 116
e 92 117
e 92 118
e 92 119
e 92 121
e 92 124
e 92 125
e 92 127
e 92 128
e 92 129
e 92 131
e 92 132
e 92 134
e 92 140
e 92 141
e 92 142
e 92 144
e 92 147
e 92 148
e 93 97
e 93 103
e 93 105
e 93 106
e 93 110
e 93 111
e 93 113
e 93 115
e 93 119
e 93 120
e 93 121
e 93 122
e 93 123
e 93 125
e 93 128
e 93 131
e 93 133
e 93 135
e 93 141
e 93 144
e 93 147
e 93 149
e 94 96
e 94 97
e 94 99
e 94 100
e 94 101
e 94 103
e 94 105
e 94 106
e 94 111
e 94 116
e 94 118
e 94 121
e 94 122
e 94 123
e 94 124
e 94 125
e 94 130
e 94 131
e 94 132
e 94 133
e 94 134
e 94 135
e 94 138
e 94 142
e 94 144
e 94 147
e 94 148
e 95 99
e 95 100
e 95 104
e 95 111
e 95 112
e 95 114
e 95 115
e 95 116
e 95 123
e 95 126
e 95 128
e 95 129
e 95 135
e 95 136
e 95 138
e 95 139
e 95 143
e 95 146
e 95 147
e 96 98
e 96 99
e 96 100
e 96 101
e 96 109
e 96 110
e 96 113
e 96 117
e 96 120
e 96 124
e 96 125
e 96 127
e 96 129
e 96 131
e 96 132
e 96 133
e 96 134
e 96 135
e 96 140
e 96 143
e 96 145
e 96 147
e 97 103
e 97 107
e 97 110
e 97 113
e 97 115
e 97 117
e 97 118
e 97 120
e 97 122
e 97 125
e 97 126
e 97 127
e 97 142
e 98 99
e 98 100
e 98 101
e 98 102
e 98 105
e 98 106
e 98 108
e 98 111
e 98 113
e 98 115
e 98 119
e 98 123
e 98 124
e 98 126
e 98 129
e 98 130
e 98 132
e 98 135
e 98 136
e 98 138
e 98 142
e 98 145
e 98 146
e 99 101
e 99 102
e 99 103
e 99 104
e 99 105
e 99 108
e 99 110
e 99 116
e 99 117
e 99 119
e 99 121
e 99 122
e 99 125
e 99 126
e 99 131
e 99 133
e 99 135
e 99 140
e 99 143
e 99 145
e 100 101
e 100 102
e 100 103
e 100 104
e 100 107
e 100 112
e 100 113
e 100 114
e 100 116
e 100 118
e 100 119
e 100 122
e 100 123
e 100 126
e 100 127
e 100 128
e 100 129
e 100 130
e 100 133
e 100 134
e 100 136
e 100 138
e 100 139
e 100 140
e 100 141
e 100 143
e 100 144
e 100 148
e 100 150
e 101 103
e 101 105
e 101 110
e 101 112
e 101 115
e 101 116
e 101 121
e 101 122
e 101 125
e 101 126
e 101 128
e 101 135
e 101 137
e 101 144
e 101 146
e 101 149
e 101 150
e 102 104
e 102 105
e 102 106
e 102 110
e 102 112
e 102 115
e 102 116
e 102 118
e 102 120
e 102 123
e 102 127
e 102 128
e 102 129
e 102 130
e 102 133
e 102 136
e 102 137
e 102 139
e 102 142
e 102 143
e 102 147
e 102 149
e 103 104
e 103 109
e 103 113
e 103 114
e 103 118
e 103 124
e 103 127
e 103 136
e 103 137
e 103 140
e 103 143
e 103 144
e 103 146
e 103 148
e 104 105
e 104 106
e 104 107
e 104 108
e 104 109
e 104 112
e 104 113
e 104 114
e 104 115
e 104 117
e 104 118
e 104 120
e 104 121
e 104 122
e 104 125
e 104 126
e 104 127
e 104 129
e 104 131
e 104 137
e 104 146
e 105 106
e 105 108
e 105 109
e 105 110
e 105 113
e 105 115
e 105 116
e 105 117
e 105 118
e 105 119
e 105 122
e 105 127
e 105 129
e 105 132
e 105 133
e 105 135
e 105 136
e 105 142
e 105 143
e 105 144
e 105 145
e 105 146
e 105 150
e 106 108
e 106 109
e 106 110
e 106 113
e 106 115
e 106 116
e 106 117
e 106 118
e 106 119
e 106 122
e 106 127
e 106 128
e 106 129
e 106 134
e 106 137
e 106 140
e 106 143
e 106 144
e 106 146
e 107 108
e 107 111
e 107 112
e 107 114
e 107 116
e 107 117
e 107 120
e 107 123
e 107 124
e 107 128
e 107 133
e 107 134
e 107 136
e 107 137
e 107 138
e 107 140
e 107 141
e 107 145
e 107 148
e 107 149
e 108 110
e 108 114
e 108 118
e 108 121
e 108 122
e 108 126
e 108 135
e 108 136
e 108 139
e 108 143
e 108 145
e 108 147
e 108 148
e 108 149
e 109 114
e 109 118
e 109 124
e 109 126
e 109 129
e 109 131
e 109 132
e 109 133
e 109 135
e 109 137
e 109 138
e 109 143
e 109 144
e 110 114
e 110 116
e 110 120
e 110 124
e 110 126
e 110 129
e 110 130
e 110 133
e 110 140
e 110 144
e 110 146
e 110 148
e 111 116
e 111 117
e 111 120
e 111 127
e 111 128
e 111 130
e 111 131
e 111 132
e 111 136
e 111 139
e 111 140
e 111 149
e 112 114
e 112 116
e 112 117
e 112 118
e 112 119
e 112 121
e 112 122
e 112 123
e 112 124
e 112 127
e 112 128
e 112 131
e 112 134
e 112 135
e 112 136
e 112 138
e 112 139
e 112 143
e 112 146
e 112 148
e 112 149
e 113 124
e 113 128
e 113 135
e 113 139
e 113 142
e 113 146
e 113 147
e 113 148
e 113 149
e 113 150
e 114 115
e 114 116
e 114 117
e 114 122
e 114 125
e 114 127
e 114 132
e 114 135
e 114 140
e 114 141
e 114 143
e 114 147
e 115 116
e 115 117
e 115 118
e 115 119
e 115 120
e 115 125
e 115 127
e 115 131
e 115 132
e 115 133
e 115 137
e 115 141
e 115 142
e 115 144
e 115 145
e 115 149
e 116 117
e 116 118
e 116 120
e 116 121
e 116 123
e 116 125
e 116 126
e 116 131
e 116 133
e 116 135
e 116 137
e 116 138
e 116 139
e 116 141
e 116 147
e 116 148
e 117 120
e 117 121
e 117 126
e 117 127
e 117 130
e 117 131
e 117 140
e 117 141
e 117 142
e 117 144
e 117 145
e 117 147
e 118 119
e 118 122
e 118 123
e 118 124
e 118 126
e 118 131
e 118 132
e 118 134
e 118 135
e 118 136
e 118 138
e 118 140
e 118 142
e 118 143
e 118 147
e 118 148
e 118 150
e 119 127
e 119 128
e 119 129
e 119 131
e 119 133
e 119 135
e 119 139
e 119 141
e 119 142
e 119 147
e 119 148
e 119 150
e 120 122
e 120 123
e 120 124
e 120 126
e 120 127
e 120 128
e 120 132
e 120 134
e 120 137
e 120 139
e 120 141
e 120 143
e 120 145
e 120 148
e 121 122
e 121 123
e 121 124
e 121 125
e 121 128
e 121 133
e 121 134
e 121 141
e 121 142
e 121 144
e 121 147
e 121 150
e 122 123
e 122 124
e 122 125
e 122 126
e 122 128
e 122 131
e 122 134
e 122 135
e 122 137
e 122 141
e 122 142
e 122 147
e 122 150
e 123 128
e 123 130
e 123 132
e 123 134
e 123 135
e 123 136
e 123 138
e 123 140
e 123 142
e 123 144
e 123 147
e 123 148
e 123 149
e 123 150
e 124 127
e 124 130
e 124 132
e 124 134
e 124 142
e 124 144
e 124 145
e 124 148
e 125 132
e 125 134
e 125 136
e 125 138
e 125 142
e 125 144
e 125 146
e 125 149
e 126 127
e 126 128
e 126 129
e 126 133
e 126 136
e 126 141
e 126 142
e 126 143
e 126 145
e 126 148
e 127 130
e 127 132
e 127 134
e 127 135
e 127 137
e 127 138
e 127 140
e 127 141
e 127 143
e 127 144
e 127 150
e 128 130
e 128 134
e 128 135
e 128 137
e 128 139
e 128 141
e 128 145
e 128 146
e 128 150
e 129 130
e 129 133
e 129 136
e 129 137
e 129 138
e 129 140
e 129 142
e 129 144
e 129 145
e 129 146
e 129 149
e 130 131
e 130 134
e 130 135
e 130 138
e 130 141
e 130 143
e 130 146
e 130 147
e 130 150
e 131 133
e 131 135
e 131 137
e 131 140
e 131 142
e 131 144
e 131 146
e 131 149
e 132 134
e 132 135
e 132 136
e 132 138
e 132 140
e 133 137
e 133 139
e 133 144
e 133 146
e 133 150
e 134 135
e 134 137
e 134 139
e 134 142
e 134 145
e 134 146
e 134 147
e 135 136
e 135 137
e 135 141
e 135 142
e 135 149
e 136 137
e 136 139
e 136 141
e 136 142
e 136 143
e 136 145
e 136 146
e 136 147
e 137 141
e 137 143
e 137 144
e 137 145
e 138 141
e 138 143
e 138 145
e 138 146
e 138 149
e 138 150
e 140 142
e 141 142
e 141 146
e 141 148
e 141 149
e 141 150
e 142 144
e 142 149
e 143 145
e 143 147
e 143 150
e 144 147
e 144 148
e 144 149
e 145 146
e 145 147
e 145 148
e 145 149
e 146 150
e 147 149
e 149 150
